Minimize
  cst_0_phi_120_flop + start_0_forkC_512_flop + branchC_0_phiC_037_flop + branchC_0_sink_1186_flop + cst_7_branchC_05_flop + cst_9_phi_n1048_flop + forkC_5_cst_00_flop + forkC_5_branchC_04_flop + forkC_5_cst_78_flop + forkC_5_cst_910_flop + forkC_5_phiC_446_flop + load_4_MC_addr195_flop + load_7_LSQ_A190_flop + branch_5_sink_4199_flop + branch_9_sink_5200_flop + branchC_11_sink_7202_flop + branchC_13_sink_8203_flop + forkC_10_LSQ_A188_flop + branchC_2_sink_2187_flop + store_0_LSQ_A191_flop + store_0_LSQ_A192_flop + branchC_3_phiC_3183_flop + branch_4_sink_3198_flop + branch_10_ret_0181_flop + branch_10_sink_6201_flop + forkC_12_LSQ_A189_flop + ret_0_end_0206_flop + phiC_3_sink_0185_flop + LSQ_A_load_726_flop + LSQ_A_end_0204_flop + MC_addr_load_422_flop + MC_addr_end_0205_flop
Subject to
  timePath_cst_0_out1 <= 4
  timePath_phi_1_in3 <= 4
  8 cst_0_phi_120_flop - timePath_cst_0_out1 + timePath_phi_1_in3 >= 0
  timePath_start_0_out1 <= 4
  timePath_forkC_5_in1 <= 4
  8 start_0_forkC_512_flop - timePath_start_0_out1 + timePath_forkC_5_in1 >= 0
  timePath_branchC_0_out1 <= 4
  timePath_phiC_0_in1 <= 4
  8 branchC_0_phiC_037_flop - timePath_branchC_0_out1 + timePath_phiC_0_in1 >= 0
  timePath_branchC_0_out2 <= 4
  timePath_sink_1_in1 <= 4
  8 branchC_0_sink_1186_flop - timePath_branchC_0_out2 + timePath_sink_1_in1 >= 0
  timePath_cst_7_out1 <= 4
  timePath_branchC_0_in2 <= 4
  8 cst_7_branchC_05_flop + timePath_branchC_0_in2 - timePath_cst_7_out1 >= 0
  timePath_cst_9_out1 <= 4
  timePath_phi_n10_in1 <= 4
  8 cst_9_phi_n1048_flop - timePath_cst_9_out1 + timePath_phi_n10_in1 >= 0
  timePath_forkC_5_out1 <= 4
  timePath_cst_0_in1 <= 4
  8 forkC_5_cst_00_flop + timePath_cst_0_in1 - timePath_forkC_5_out1 >= 0
  timePath_forkC_5_out4 <= 4
  timePath_branchC_0_in1 <= 4
  8 forkC_5_branchC_04_flop + timePath_branchC_0_in1 - timePath_forkC_5_out4 >= 0
  timePath_forkC_5_out5 <= 4
  timePath_cst_7_in1 <= 4
  8 forkC_5_cst_78_flop + timePath_cst_7_in1 - timePath_forkC_5_out5 >= 0
  timePath_forkC_5_out3 <= 4
  timePath_cst_9_in1 <= 4
  8 forkC_5_cst_910_flop + timePath_cst_9_in1 - timePath_forkC_5_out3 >= 0
  timePath_forkC_5_out2 <= 4
  timePath_phiC_4_in3 <= 4
  8 forkC_5_phiC_446_flop - timePath_forkC_5_out2 + timePath_phiC_4_in3 >= 0
  timePath_phi_1_out1 <= 4
  timePath_fork_0_in1 <= 4
  -timePath_phi_1_out1 + timePath_fork_0_in1 >= -8
  timePath_load_4_out1 <= 4
  timePath_fork_13_in1 <= 4
  -timePath_load_4_out1 + timePath_fork_13_in1 >= -0
  timePath_load_7_out1 <= 4
  timePath_fork_14_in1 <= 4
  -timePath_load_7_out1 + timePath_fork_14_in1 >= -0
  timePath_cst_1_out1 <= 4
  timePath_icmp_8_in2 <= 4
  -timePath_cst_1_out1 + timePath_icmp_8_in2 >= -0
  timePath_icmp_8_out1 <= 4
  timePath_fork_1_in1 <= 4
  -timePath_icmp_8_out1 + timePath_fork_1_in1 >= -0
  timePath_cst_4_out1 <= 4
  timePath_branch_9_in1 <= 4
  -timePath_cst_4_out1 + timePath_branch_9_in1 >= -0
  timePath_phiC_0_out1 <= 4
  timePath_forkC_10_in1 <= 4
  -timePath_phiC_0_out1 + timePath_forkC_10_in1 >= -0
  timePath_branchC_1_out2 <= 4
  timePath_phiC_1_in1 <= 4
  -timePath_branchC_1_out2 + timePath_phiC_1_in1 >= -0
  timePath_branchC_1_out1 <= 4
  timePath_phiC_2_in2 <= 4
  -timePath_branchC_1_out1 + timePath_phiC_2_in2 >= -0
  timePath_phiC_4_out1 <= 4
  timePath_forkC_6_in1 <= 4
  -timePath_phiC_4_out1 + timePath_forkC_6_in1 >= -8
  timePath_phi_n10_out1 <= 4
  timePath_fork_7_in1 <= 4
  -timePath_phi_n10_out1 + timePath_fork_7_in1 >= -0
  timePath_branch_5_out2 <= 4
  timePath_fork_8_in1 <= 4
  -timePath_branch_5_out2 + timePath_fork_8_in1 >= -0
  timePath_branch_5_out1 <= 4
  timePath_sink_4_in1 <= 4
  8 branch_5_sink_4199_flop - timePath_branch_5_out1 + timePath_sink_4_in1 >= 0
  timePath_branch_9_out2 <= 4
  timePath_phi_16_in3 <= 4
  -timePath_branch_9_out2 + timePath_phi_16_in3 >= -0
  timePath_branch_9_out1 <= 4
  timePath_sink_5_in1 <= 4
  8 branch_9_sink_5200_flop - timePath_branch_9_out1 + timePath_sink_5_in1 >= 0
  timePath_branchC_11_out2 <= 4
  timePath_forkC_9_in1 <= 4
  -timePath_branchC_11_out2 + timePath_forkC_9_in1 >= -0
  timePath_branchC_11_out1 <= 4
  timePath_sink_7_in1 <= 4
  8 branchC_11_sink_7202_flop - timePath_branchC_11_out1 + timePath_sink_7_in1 >= 0
  timePath_branchC_13_out2 <= 4
  timePath_phiC_4_in2 <= 4
  timePath_phiC_4_in2 - timePath_branchC_13_out2 >= -0
  timePath_branchC_13_out1 <= 4
  timePath_sink_8_in1 <= 4
  8 branchC_13_sink_8203_flop - timePath_branchC_13_out1 + timePath_sink_8_in1 >= 0
  timePath_fork_0_out2 <= 4
  timePath_load_4_in2 <= 4
  timePath_load_4_in2 - timePath_fork_0_out2 >= -0
  timePath_fork_0_out1 <= 4
  timePath_add_19_in1 <= 4
  -timePath_fork_0_out1 + timePath_add_19_in1 >= -0
  timePath_fork_1_out5 <= 4
  timePath_branchC_1_in2 <= 4
  timePath_branchC_1_in2 - timePath_fork_1_out5 >= -0
  timePath_fork_1_out1 <= 4
  timePath_branch_5_in2 <= 4
  timePath_branch_5_in2 - timePath_fork_1_out1 >= -0
  timePath_fork_1_out2 <= 4
  timePath_branch_9_in2 <= 4
  timePath_branch_9_in2 - timePath_fork_1_out2 >= -0
  timePath_fork_1_out3 <= 4
  timePath_branchC_11_in2 <= 4
  timePath_branchC_11_in2 - timePath_fork_1_out3 >= -0
  timePath_fork_1_out4 <= 4
  timePath_phi_16_in1 <= 4
  -timePath_fork_1_out4 + timePath_phi_16_in1 >= -0
  timePath_forkC_6_out1 <= 4
  timePath_cst_1_in1 <= 4
  timePath_cst_1_in1 - timePath_forkC_6_out1 >= -0
  timePath_forkC_6_out4 <= 4
  timePath_cst_4_in1 <= 4
  timePath_cst_4_in1 - timePath_forkC_6_out4 >= -0
  timePath_forkC_6_out3 <= 4
  timePath_branchC_11_in1 <= 4
  timePath_branchC_11_in1 - timePath_forkC_6_out3 >= -0
  timePath_forkC_6_out2 <= 4
  timePath_branchC_13_in1 <= 4
  timePath_branchC_13_in1 - timePath_forkC_6_out2 >= -0
  timePath_forkC_6_out5 <= 4
  timePath_cst_5_in1 <= 4
  -timePath_forkC_6_out5 + timePath_cst_5_in1 >= -0
  timePath_forkC_6_out6 <= 4
  timePath_cst_6_in1 <= 4
  -timePath_forkC_6_out6 + timePath_cst_6_in1 >= -0
  timePath_fork_7_out1 <= 4
  timePath_phi_1_in1 <= 4
  timePath_phi_1_in1 - timePath_fork_7_out1 >= -0
  timePath_fork_7_out2 <= 4
  timePath_phiC_4_in1 <= 4
  timePath_phiC_4_in1 - timePath_fork_7_out2 >= -0
  timePath_forkC_10_out1 <= 4
  timePath_branchC_1_in1 <= 4
  timePath_branchC_1_in1 - timePath_forkC_10_out1 >= -8
  timePath_fork_13_out1 <= 4
  timePath_load_7_in2 <= 4
  timePath_load_7_in2 - timePath_fork_13_out1 >= -0
  timePath_fork_13_out2 <= 4
  timePath_store_0_in2 <= 4
  -timePath_fork_13_out2 + timePath_store_0_in2 >= -0
  timePath_fork_14_out1 <= 4
  timePath_icmp_8_in1 <= 4
  timePath_icmp_8_in1 - timePath_fork_14_out1 >= -0
  timePath_fork_14_out2 <= 4
  timePath_branch_5_in1 <= 4
  timePath_branch_5_in1 - timePath_fork_14_out2 >= -0
  timePath_mul_10_out1 <= 4
  timePath_add_11_in1 <= 4
  -timePath_mul_10_out1 + timePath_add_11_in1 >= -0
  timePath_cst_2_out1 <= 4
  timePath_add_11_in2 <= 4
  -timePath_cst_2_out1 + timePath_add_11_in2 >= -0
  timePath_add_11_out1 <= 4
  timePath_mul_12_in1 <= 4
  -timePath_add_11_out1 + timePath_mul_12_in1 >= -0
  timePath_mul_12_out1 <= 4
  timePath_add_13_in1 <= 4
  -timePath_mul_12_out1 + timePath_add_13_in1 >= -0
  timePath_cst_3_out1 <= 4
  timePath_add_13_in2 <= 4
  -timePath_cst_3_out1 + timePath_add_13_in2 >= -0
  timePath_add_13_out1 <= 4
  timePath_mul_14_in1 <= 4
  -timePath_add_13_out1 + timePath_mul_14_in1 >= -0
  timePath_mul_14_out1 <= 4
  timePath_phi_16_in2 <= 4
  -timePath_mul_14_out1 + timePath_phi_16_in2 >= -0
  timePath_phiC_1_out1 <= 4
  timePath_forkC_11_in1 <= 4
  -timePath_phiC_1_out1 + timePath_forkC_11_in1 >= -0
  timePath_branchC_2_out1 <= 4
  timePath_phiC_2_in1 <= 4
  -timePath_branchC_2_out1 + timePath_phiC_2_in1 >= -0
  timePath_branchC_2_out2 <= 4
  timePath_sink_2_in1 <= 4
  8 branchC_2_sink_2187_flop - timePath_branchC_2_out2 + timePath_sink_2_in1 >= 0
  timePath_cst_8_out1 <= 4
  timePath_branchC_2_in2 <= 4
  timePath_branchC_2_in2 - timePath_cst_8_out1 >= -0
  timePath_fork_8_out1 <= 4
  timePath_mul_10_in1 <= 4
  timePath_mul_10_in1 - timePath_fork_8_out1 >= -0
  timePath_fork_8_out2 <= 4
  timePath_mul_10_in2 <= 4
  timePath_mul_10_in2 - timePath_fork_8_out2 >= -0
  timePath_fork_8_out3 <= 4
  timePath_mul_12_in2 <= 4
  timePath_mul_12_in2 - timePath_fork_8_out3 >= -0
  timePath_fork_8_out4 <= 4
  timePath_mul_14_in2 <= 4
  timePath_mul_14_in2 - timePath_fork_8_out4 >= -0
  timePath_forkC_9_out1 <= 4
  timePath_cst_2_in1 <= 4
  timePath_cst_2_in1 - timePath_forkC_9_out1 >= -0
  timePath_forkC_9_out2 <= 4
  timePath_cst_3_in1 <= 4
  timePath_cst_3_in1 - timePath_forkC_9_out2 >= -0
  timePath_forkC_11_out1 <= 4
  timePath_branchC_2_in1 <= 4
  timePath_branchC_2_in1 - timePath_forkC_11_out1 >= -0
  timePath_forkC_11_out2 <= 4
  timePath_cst_8_in1 <= 4
  timePath_cst_8_in1 - timePath_forkC_11_out2 >= -0
  timePath_phi_16_out1 <= 4
  timePath_fork_2_in1 <= 4
  -timePath_phi_16_out1 + timePath_fork_2_in1 >= -0
  timePath_cst_5_out1 <= 4
  timePath_add_19_in2 <= 4
  -timePath_cst_5_out1 + timePath_add_19_in2 >= -0
  timePath_add_19_out1 <= 4
  timePath_fork_3_in1 <= 4
  -timePath_add_19_out1 + timePath_fork_3_in1 >= -0
  timePath_cst_6_out1 <= 4
  timePath_icmp_20_in2 <= 4
  -timePath_cst_6_out1 + timePath_icmp_20_in2 >= -0
  timePath_icmp_20_out1 <= 4
  timePath_fork_4_in1 <= 4
  -timePath_icmp_20_out1 + timePath_fork_4_in1 >= -0
  timePath_phiC_2_out1 <= 4
  timePath_forkC_12_in1 <= 4
  -timePath_phiC_2_out1 + timePath_forkC_12_in1 >= -0
  timePath_branchC_3_out1 <= 4
  timePath_phiC_0_in2 <= 4
  timePath_phiC_0_in2 - timePath_branchC_3_out1 >= -0
  timePath_branchC_3_out2 <= 4
  timePath_phiC_3_in1 <= 4
  8 branchC_3_phiC_3183_flop - timePath_branchC_3_out2 + timePath_phiC_3_in1 >= 0
  timePath_branch_4_out2 <= 4
  timePath_phi_1_in2 <= 4
  timePath_phi_1_in2 - timePath_branch_4_out2 >= -0
  timePath_branch_4_out1 <= 4
  timePath_sink_3_in1 <= 4
  8 branch_4_sink_3198_flop - timePath_branch_4_out1 + timePath_sink_3_in1 >= 0
  timePath_branch_10_out2 <= 4
  timePath_ret_0_in1 <= 4
  8 branch_10_ret_0181_flop - timePath_branch_10_out2 + timePath_ret_0_in1 >= 0
  timePath_branch_10_out1 <= 4
  timePath_sink_6_in1 <= 4
  8 branch_10_sink_6201_flop - timePath_branch_10_out1 + timePath_sink_6_in1 >= 0
  timePath_fork_2_out1 <= 4
  timePath_store_0_in1 <= 4
  timePath_store_0_in1 - timePath_fork_2_out1 >= -0
  timePath_fork_2_out2 <= 4
  timePath_branch_10_in1 <= 4
  timePath_branch_10_in1 - timePath_fork_2_out2 >= -0
  timePath_fork_3_out1 <= 4
  timePath_icmp_20_in1 <= 4
  timePath_icmp_20_in1 - timePath_fork_3_out1 >= -0
  timePath_fork_3_out2 <= 4
  timePath_branch_4_in1 <= 4
  timePath_branch_4_in1 - timePath_fork_3_out2 >= -0
  timePath_fork_4_out2 <= 4
  timePath_phi_n10_in2 <= 4
  timePath_phi_n10_in2 - timePath_fork_4_out2 >= -0
  timePath_fork_4_out4 <= 4
  timePath_branchC_13_in2 <= 4
  timePath_branchC_13_in2 - timePath_fork_4_out4 >= -0
  timePath_fork_4_out5 <= 4
  timePath_branchC_3_in2 <= 4
  timePath_branchC_3_in2 - timePath_fork_4_out5 >= -0
  timePath_fork_4_out1 <= 4
  timePath_branch_4_in2 <= 4
  timePath_branch_4_in2 - timePath_fork_4_out1 >= -0
  timePath_fork_4_out3 <= 4
  timePath_branch_10_in2 <= 4
  timePath_branch_10_in2 - timePath_fork_4_out3 >= -0
  timePath_forkC_12_out1 <= 4
  timePath_branchC_3_in1 <= 4
  timePath_branchC_3_in1 - timePath_forkC_12_out1 >= -8
  timePath_ret_0_out1 <= 4
  timePath_end_0_in3 <= 4
  8 ret_0_end_0206_flop - timePath_ret_0_out1 + timePath_end_0_in3 >= 0
  timePath_phiC_3_out1 <= 4
  timePath_sink_0_in1 <= 4
  8 phiC_3_sink_0185_flop - timePath_phiC_3_out1 + timePath_sink_0_in1 >= 0
  -timePath_cst_0_in1 + timePath_cst_0_out1 >= 0
  -timePath_branchC_0_in1 + timePath_branchC_0_out1 >= 0
  -timePath_branchC_0_in2 + timePath_branchC_0_out1 >= 0
  -timePath_branchC_0_in1 + timePath_branchC_0_out2 >= 0
  -timePath_branchC_0_in2 + timePath_branchC_0_out2 >= 0
  -timePath_cst_7_in1 + timePath_cst_7_out1 >= 0
  -timePath_cst_9_in1 + timePath_cst_9_out1 >= 0
  -timePath_forkC_5_in1 + timePath_forkC_5_out1 >= 0
  -timePath_forkC_5_in1 + timePath_forkC_5_out2 >= 0
  -timePath_forkC_5_in1 + timePath_forkC_5_out3 >= 0
  -timePath_forkC_5_in1 + timePath_forkC_5_out4 >= 0
  -timePath_forkC_5_in1 + timePath_forkC_5_out5 >= 0
  -timePath_phi_1_in1 + timePath_phi_1_out1 >= 0.366
  -timePath_phi_1_in2 + timePath_phi_1_out1 >= 0.366
  -timePath_phi_1_in3 + timePath_phi_1_out1 >= 0.366
  timePath_load_4_out1 = 0
  timePath_load_4_out2 = 0
  timePath_load_4_in1 <= 4
  timePath_load_4_in2 <= 4
  timePath_load_7_out1 = 0
  timePath_load_7_out2 = 0
  timePath_load_7_in1 <= 4
  timePath_load_7_in2 <= 4
  -timePath_cst_1_in1 + timePath_cst_1_out1 >= 0
  -timePath_icmp_8_in1 + timePath_icmp_8_out1 >= 1.53
  -timePath_icmp_8_in2 + timePath_icmp_8_out1 >= 1.53
  -timePath_cst_4_in1 + timePath_cst_4_out1 >= 0
  -timePath_phiC_0_in1 + timePath_phiC_0_out1 >= 0.166
  -timePath_phiC_0_in2 + timePath_phiC_0_out1 >= 0.166
  -timePath_branchC_1_in1 + timePath_branchC_1_out1 >= 0
  -timePath_branchC_1_in2 + timePath_branchC_1_out1 >= 0
  -timePath_branchC_1_in1 + timePath_branchC_1_out2 >= 0
  -timePath_branchC_1_in2 + timePath_branchC_1_out2 >= 0
  -timePath_phiC_4_in1 + timePath_phiC_4_out1 >= 0.166
  -timePath_phiC_4_in2 + timePath_phiC_4_out1 >= 0.166
  -timePath_phiC_4_in3 + timePath_phiC_4_out1 >= 0.166
  -timePath_phi_n10_in1 + timePath_phi_n10_out1 >= 0.366
  -timePath_phi_n10_in2 + timePath_phi_n10_out1 >= 0.366
  -timePath_branch_5_in1 + timePath_branch_5_out1 >= 0
  -timePath_branch_5_in2 + timePath_branch_5_out1 >= 0
  -timePath_branch_5_in1 + timePath_branch_5_out2 >= 0
  -timePath_branch_5_in2 + timePath_branch_5_out2 >= 0
  -timePath_branch_9_in1 + timePath_branch_9_out1 >= 0
  -timePath_branch_9_in2 + timePath_branch_9_out1 >= 0
  -timePath_branch_9_in1 + timePath_branch_9_out2 >= 0
  -timePath_branch_9_in2 + timePath_branch_9_out2 >= 0
  -timePath_branchC_11_in1 + timePath_branchC_11_out1 >= 0
  -timePath_branchC_11_in2 + timePath_branchC_11_out1 >= 0
  -timePath_branchC_11_in1 + timePath_branchC_11_out2 >= 0
  -timePath_branchC_11_in2 + timePath_branchC_11_out2 >= 0
  -timePath_branchC_13_in1 + timePath_branchC_13_out1 >= 0
  -timePath_branchC_13_in2 + timePath_branchC_13_out1 >= 0
  -timePath_branchC_13_in1 + timePath_branchC_13_out2 >= 0
  -timePath_branchC_13_in2 + timePath_branchC_13_out2 >= 0
  -timePath_fork_0_in1 + timePath_fork_0_out1 >= 0
  -timePath_fork_0_in1 + timePath_fork_0_out2 >= 0
  -timePath_fork_1_in1 + timePath_fork_1_out1 >= 0
  -timePath_fork_1_in1 + timePath_fork_1_out2 >= 0
  -timePath_fork_1_in1 + timePath_fork_1_out3 >= 0
  -timePath_fork_1_in1 + timePath_fork_1_out4 >= 0
  -timePath_fork_1_in1 + timePath_fork_1_out5 >= 0
  -timePath_forkC_6_in1 + timePath_forkC_6_out1 >= 0
  -timePath_forkC_6_in1 + timePath_forkC_6_out2 >= 0
  -timePath_forkC_6_in1 + timePath_forkC_6_out3 >= 0
  -timePath_forkC_6_in1 + timePath_forkC_6_out4 >= 0
  -timePath_forkC_6_in1 + timePath_forkC_6_out5 >= 0
  -timePath_forkC_6_in1 + timePath_forkC_6_out6 >= 0
  -timePath_fork_7_in1 + timePath_fork_7_out1 >= 0
  -timePath_fork_7_in1 + timePath_fork_7_out2 >= 0
  -timePath_forkC_10_in1 + timePath_forkC_10_out1 >= 0
  -timePath_forkC_10_in1 + timePath_forkC_10_out2 >= 0
  -timePath_fork_13_in1 + timePath_fork_13_out1 >= 0
  -timePath_fork_13_in1 + timePath_fork_13_out2 >= 0
  -timePath_fork_14_in1 + timePath_fork_14_out1 >= 0
  -timePath_fork_14_in1 + timePath_fork_14_out2 >= 0
  timePath_mul_10_out1 = 0
  timePath_mul_10_in1 <= 4
  timePath_mul_10_in2 <= 4
  -timePath_cst_2_in1 + timePath_cst_2_out1 >= 0
  -timePath_add_11_in1 + timePath_add_11_out1 >= 1.693
  -timePath_add_11_in2 + timePath_add_11_out1 >= 1.693
  timePath_mul_12_out1 = 0
  timePath_mul_12_in1 <= 4
  timePath_mul_12_in2 <= 4
  -timePath_cst_3_in1 + timePath_cst_3_out1 >= 0
  -timePath_add_13_in1 + timePath_add_13_out1 >= 1.693
  -timePath_add_13_in2 + timePath_add_13_out1 >= 1.693
  timePath_mul_14_out1 = 0
  timePath_mul_14_in1 <= 4
  timePath_mul_14_in2 <= 4
  -timePath_phiC_1_in1 + timePath_phiC_1_out1 >= 0.166
  -timePath_branchC_2_in1 + timePath_branchC_2_out1 >= 0
  -timePath_branchC_2_in2 + timePath_branchC_2_out1 >= 0
  -timePath_branchC_2_in1 + timePath_branchC_2_out2 >= 0
  -timePath_branchC_2_in2 + timePath_branchC_2_out2 >= 0
  -timePath_cst_8_in1 + timePath_cst_8_out1 >= 0
  -timePath_fork_8_in1 + timePath_fork_8_out1 >= 0
  -timePath_fork_8_in1 + timePath_fork_8_out2 >= 0
  -timePath_fork_8_in1 + timePath_fork_8_out3 >= 0
  -timePath_fork_8_in1 + timePath_fork_8_out4 >= 0
  -timePath_forkC_9_in1 + timePath_forkC_9_out1 >= 0
  -timePath_forkC_9_in1 + timePath_forkC_9_out2 >= 0
  -timePath_forkC_11_in1 + timePath_forkC_11_out1 >= 0
  -timePath_forkC_11_in1 + timePath_forkC_11_out2 >= 0
  -timePath_phi_16_in1 + timePath_phi_16_out1 >= 0.366
  -timePath_phi_16_in2 + timePath_phi_16_out1 >= 0.366
  -timePath_phi_16_in3 + timePath_phi_16_out1 >= 0.366
  -timePath_store_0_in1 + timePath_store_0_out1 >= 0
  -timePath_store_0_in2 + timePath_store_0_out1 >= 0
  -timePath_store_0_in1 + timePath_store_0_out2 >= 0
  -timePath_store_0_in2 + timePath_store_0_out2 >= 0
  -timePath_cst_5_in1 + timePath_cst_5_out1 >= 0
  -timePath_add_19_in1 + timePath_add_19_out1 >= 1.693
  -timePath_add_19_in2 + timePath_add_19_out1 >= 1.693
  -timePath_cst_6_in1 + timePath_cst_6_out1 >= 0
  -timePath_icmp_20_in1 + timePath_icmp_20_out1 >= 1.53
  -timePath_icmp_20_in2 + timePath_icmp_20_out1 >= 1.53
  -timePath_phiC_2_in1 + timePath_phiC_2_out1 >= 0.166
  -timePath_phiC_2_in2 + timePath_phiC_2_out1 >= 0.166
  -timePath_branchC_3_in1 + timePath_branchC_3_out1 >= 0
  -timePath_branchC_3_in2 + timePath_branchC_3_out1 >= 0
  -timePath_branchC_3_in1 + timePath_branchC_3_out2 >= 0
  -timePath_branchC_3_in2 + timePath_branchC_3_out2 >= 0
  -timePath_branch_4_in1 + timePath_branch_4_out1 >= 0
  -timePath_branch_4_in2 + timePath_branch_4_out1 >= 0
  -timePath_branch_4_in1 + timePath_branch_4_out2 >= 0
  -timePath_branch_4_in2 + timePath_branch_4_out2 >= 0
  -timePath_branch_10_in1 + timePath_branch_10_out1 >= 0
  -timePath_branch_10_in2 + timePath_branch_10_out1 >= 0
  -timePath_branch_10_in1 + timePath_branch_10_out2 >= 0
  -timePath_branch_10_in2 + timePath_branch_10_out2 >= 0
  -timePath_fork_2_in1 + timePath_fork_2_out1 >= 0
  -timePath_fork_2_in1 + timePath_fork_2_out2 >= 0
  -timePath_fork_3_in1 + timePath_fork_3_out1 >= 0
  -timePath_fork_3_in1 + timePath_fork_3_out2 >= 0
  -timePath_fork_4_in1 + timePath_fork_4_out1 >= 0
  -timePath_fork_4_in1 + timePath_fork_4_out2 >= 0
  -timePath_fork_4_in1 + timePath_fork_4_out3 >= 0
  -timePath_fork_4_in1 + timePath_fork_4_out4 >= 0
  -timePath_fork_4_in1 + timePath_fork_4_out5 >= 0
  -timePath_forkC_12_in1 + timePath_forkC_12_out1 >= 0
  -timePath_forkC_12_in1 + timePath_forkC_12_out2 >= 0
  -timePath_ret_0_in1 + timePath_ret_0_out1 >= 0
  -timePath_phiC_3_in1 + timePath_phiC_3_out1 >= 0.166
  -timePath_LSQ_A_in1 + timePath_LSQ_A_out1 >= 0
  -timePath_LSQ_A_in2 + timePath_LSQ_A_out1 >= 0
  -timePath_LSQ_A_in3 + timePath_LSQ_A_out1 >= 0
  -timePath_LSQ_A_in4 + timePath_LSQ_A_out1 >= 0
  -timePath_LSQ_A_in5 + timePath_LSQ_A_out1 >= 0
  -timePath_LSQ_A_in1 + timePath_LSQ_A_out2 >= 0
  -timePath_LSQ_A_in2 + timePath_LSQ_A_out2 >= 0
  -timePath_LSQ_A_in3 + timePath_LSQ_A_out2 >= 0
  -timePath_LSQ_A_in4 + timePath_LSQ_A_out2 >= 0
  -timePath_LSQ_A_in5 + timePath_LSQ_A_out2 >= 0
  -timePath_MC_addr_in1 + timePath_MC_addr_out1 >= 0
  -timePath_MC_addr_in1 + timePath_MC_addr_out2 >= 0
  69 cst_0_phi_120_flop - timeElastic_cst_0_out1 + timeElastic_phi_1_in3 >= 0
  69 start_0_forkC_512_flop - timeElastic_start_0_out1 + timeElastic_forkC_5_in1 >= 0
  69 branchC_0_phiC_037_flop - timeElastic_branchC_0_out1 + timeElastic_phiC_0_in1 >= 0
  69 branchC_0_sink_1186_flop - timeElastic_branchC_0_out2 + timeElastic_sink_1_in1 >= 0
  69 cst_7_branchC_05_flop + timeElastic_branchC_0_in2 - timeElastic_cst_7_out1 >= 0
  69 cst_9_phi_n1048_flop - timeElastic_cst_9_out1 + timeElastic_phi_n10_in1 >= 0
  69 forkC_5_cst_00_flop + timeElastic_cst_0_in1 - timeElastic_forkC_5_out1 >= 0
  69 forkC_5_branchC_04_flop + timeElastic_branchC_0_in1 - timeElastic_forkC_5_out4 >= 0
  69 forkC_5_cst_78_flop + timeElastic_cst_7_in1 - timeElastic_forkC_5_out5 >= 0
  69 forkC_5_cst_910_flop + timeElastic_cst_9_in1 - timeElastic_forkC_5_out3 >= 0
  69 forkC_5_phiC_446_flop - timeElastic_forkC_5_out2 + timeElastic_phiC_4_in3 >= 0
  -timeElastic_phi_1_out1 + timeElastic_fork_0_in1 >= -69
  -timeElastic_load_4_out1 + timeElastic_fork_13_in1 >= -0
  -timeElastic_load_7_out1 + timeElastic_fork_14_in1 >= -0
  -timeElastic_cst_1_out1 + timeElastic_icmp_8_in2 >= -0
  -timeElastic_icmp_8_out1 + timeElastic_fork_1_in1 >= -0
  -timeElastic_cst_4_out1 + timeElastic_branch_9_in1 >= -0
  -timeElastic_phiC_0_out1 + timeElastic_forkC_10_in1 >= -0
  -timeElastic_branchC_1_out2 + timeElastic_phiC_1_in1 >= -0
  -timeElastic_branchC_1_out1 + timeElastic_phiC_2_in2 >= -0
  -timeElastic_phiC_4_out1 + timeElastic_forkC_6_in1 >= -69
  -timeElastic_phi_n10_out1 + timeElastic_fork_7_in1 >= -0
  -timeElastic_branch_5_out2 + timeElastic_fork_8_in1 >= -0
  69 branch_5_sink_4199_flop - timeElastic_branch_5_out1 + timeElastic_sink_4_in1 >= 0
  -timeElastic_branch_9_out2 + timeElastic_phi_16_in3 >= -0
  69 branch_9_sink_5200_flop - timeElastic_branch_9_out1 + timeElastic_sink_5_in1 >= 0
  -timeElastic_branchC_11_out2 + timeElastic_forkC_9_in1 >= -0
  69 branchC_11_sink_7202_flop - timeElastic_branchC_11_out1 + timeElastic_sink_7_in1 >= 0
  timeElastic_phiC_4_in2 - timeElastic_branchC_13_out2 >= -0
  69 branchC_13_sink_8203_flop - timeElastic_branchC_13_out1 + timeElastic_sink_8_in1 >= 0
  timeElastic_load_4_in2 - timeElastic_fork_0_out2 >= -0
  -timeElastic_fork_0_out1 + timeElastic_add_19_in1 >= -0
  timeElastic_branchC_1_in2 - timeElastic_fork_1_out5 >= -0
  timeElastic_branch_5_in2 - timeElastic_fork_1_out1 >= -0
  timeElastic_branch_9_in2 - timeElastic_fork_1_out2 >= -0
  timeElastic_branchC_11_in2 - timeElastic_fork_1_out3 >= -0
  -timeElastic_fork_1_out4 + timeElastic_phi_16_in1 >= -0
  timeElastic_cst_1_in1 - timeElastic_forkC_6_out1 >= -0
  timeElastic_cst_4_in1 - timeElastic_forkC_6_out4 >= -0
  timeElastic_branchC_11_in1 - timeElastic_forkC_6_out3 >= -0
  timeElastic_branchC_13_in1 - timeElastic_forkC_6_out2 >= -0
  -timeElastic_forkC_6_out5 + timeElastic_cst_5_in1 >= -0
  -timeElastic_forkC_6_out6 + timeElastic_cst_6_in1 >= -0
  timeElastic_phi_1_in1 - timeElastic_fork_7_out1 >= -0
  timeElastic_phiC_4_in1 - timeElastic_fork_7_out2 >= -0
  timeElastic_branchC_1_in1 - timeElastic_forkC_10_out1 >= -69
  timeElastic_load_7_in2 - timeElastic_fork_13_out1 >= -0
  -timeElastic_fork_13_out2 + timeElastic_store_0_in2 >= -0
  timeElastic_icmp_8_in1 - timeElastic_fork_14_out1 >= -0
  timeElastic_branch_5_in1 - timeElastic_fork_14_out2 >= -0
  -timeElastic_mul_10_out1 + timeElastic_add_11_in1 >= -0
  -timeElastic_cst_2_out1 + timeElastic_add_11_in2 >= -0
  -timeElastic_add_11_out1 + timeElastic_mul_12_in1 >= -0
  -timeElastic_mul_12_out1 + timeElastic_add_13_in1 >= -0
  -timeElastic_cst_3_out1 + timeElastic_add_13_in2 >= -0
  -timeElastic_add_13_out1 + timeElastic_mul_14_in1 >= -0
  -timeElastic_mul_14_out1 + timeElastic_phi_16_in2 >= -0
  -timeElastic_phiC_1_out1 + timeElastic_forkC_11_in1 >= -0
  -timeElastic_branchC_2_out1 + timeElastic_phiC_2_in1 >= -0
  69 branchC_2_sink_2187_flop - timeElastic_branchC_2_out2 + timeElastic_sink_2_in1 >= 0
  timeElastic_branchC_2_in2 - timeElastic_cst_8_out1 >= -0
  timeElastic_mul_10_in1 - timeElastic_fork_8_out1 >= -0
  timeElastic_mul_10_in2 - timeElastic_fork_8_out2 >= -0
  timeElastic_mul_12_in2 - timeElastic_fork_8_out3 >= -0
  timeElastic_mul_14_in2 - timeElastic_fork_8_out4 >= -0
  timeElastic_cst_2_in1 - timeElastic_forkC_9_out1 >= -0
  timeElastic_cst_3_in1 - timeElastic_forkC_9_out2 >= -0
  timeElastic_branchC_2_in1 - timeElastic_forkC_11_out1 >= -0
  timeElastic_cst_8_in1 - timeElastic_forkC_11_out2 >= -0
  -timeElastic_phi_16_out1 + timeElastic_fork_2_in1 >= -0
  -timeElastic_cst_5_out1 + timeElastic_add_19_in2 >= -0
  -timeElastic_add_19_out1 + timeElastic_fork_3_in1 >= -0
  -timeElastic_cst_6_out1 + timeElastic_icmp_20_in2 >= -0
  -timeElastic_icmp_20_out1 + timeElastic_fork_4_in1 >= -0
  -timeElastic_phiC_2_out1 + timeElastic_forkC_12_in1 >= -0
  timeElastic_phiC_0_in2 - timeElastic_branchC_3_out1 >= -0
  69 branchC_3_phiC_3183_flop - timeElastic_branchC_3_out2 + timeElastic_phiC_3_in1 >= 0
  timeElastic_phi_1_in2 - timeElastic_branch_4_out2 >= -0
  69 branch_4_sink_3198_flop - timeElastic_branch_4_out1 + timeElastic_sink_3_in1 >= 0
  69 branch_10_ret_0181_flop - timeElastic_branch_10_out2 + timeElastic_ret_0_in1 >= 0
  69 branch_10_sink_6201_flop - timeElastic_branch_10_out1 + timeElastic_sink_6_in1 >= 0
  timeElastic_store_0_in1 - timeElastic_fork_2_out1 >= -0
  timeElastic_branch_10_in1 - timeElastic_fork_2_out2 >= -0
  timeElastic_icmp_20_in1 - timeElastic_fork_3_out1 >= -0
  timeElastic_branch_4_in1 - timeElastic_fork_3_out2 >= -0
  timeElastic_phi_n10_in2 - timeElastic_fork_4_out2 >= -0
  timeElastic_branchC_13_in2 - timeElastic_fork_4_out4 >= -0
  timeElastic_branchC_3_in2 - timeElastic_fork_4_out5 >= -0
  timeElastic_branch_4_in2 - timeElastic_fork_4_out1 >= -0
  timeElastic_branch_10_in2 - timeElastic_fork_4_out3 >= -0
  timeElastic_branchC_3_in1 - timeElastic_forkC_12_out1 >= -69
  69 ret_0_end_0206_flop - timeElastic_ret_0_out1 + timeElastic_end_0_in3 >= 0
  69 phiC_3_sink_0185_flop - timeElastic_phiC_3_out1 + timeElastic_sink_0_in1 >= 0
  -timeElastic_cst_0_in1 + timeElastic_cst_0_out1 >= 1
  -timeElastic_branchC_0_in1 + timeElastic_branchC_0_out1 >= 1
  -timeElastic_branchC_0_in2 + timeElastic_branchC_0_out1 >= 1
  -timeElastic_branchC_0_in1 + timeElastic_branchC_0_out2 >= 1
  -timeElastic_branchC_0_in2 + timeElastic_branchC_0_out2 >= 1
  -timeElastic_cst_7_in1 + timeElastic_cst_7_out1 >= 1
  -timeElastic_cst_9_in1 + timeElastic_cst_9_out1 >= 1
  -timeElastic_forkC_5_in1 + timeElastic_forkC_5_out1 >= 1
  -timeElastic_forkC_5_in1 + timeElastic_forkC_5_out2 >= 1
  -timeElastic_forkC_5_in1 + timeElastic_forkC_5_out3 >= 1
  -timeElastic_forkC_5_in1 + timeElastic_forkC_5_out4 >= 1
  -timeElastic_forkC_5_in1 + timeElastic_forkC_5_out5 >= 1
  -timeElastic_phi_1_in1 + timeElastic_phi_1_out1 >= 1
  -timeElastic_phi_1_in2 + timeElastic_phi_1_out1 >= 1
  -timeElastic_phi_1_in3 + timeElastic_phi_1_out1 >= 1
  -timeElastic_load_4_in1 + timeElastic_load_4_out1 >= 1
  -timeElastic_load_4_in2 + timeElastic_load_4_out1 >= 1
  -timeElastic_load_4_in1 + timeElastic_load_4_out2 >= 1
  -timeElastic_load_4_in2 + timeElastic_load_4_out2 >= 1
  -timeElastic_load_7_in1 + timeElastic_load_7_out1 >= 1
  -timeElastic_load_7_in2 + timeElastic_load_7_out1 >= 1
  -timeElastic_load_7_in1 + timeElastic_load_7_out2 >= 1
  -timeElastic_load_7_in2 + timeElastic_load_7_out2 >= 1
  -timeElastic_cst_1_in1 + timeElastic_cst_1_out1 >= 1
  -timeElastic_icmp_8_in1 + timeElastic_icmp_8_out1 >= 1
  -timeElastic_icmp_8_in2 + timeElastic_icmp_8_out1 >= 1
  -timeElastic_cst_4_in1 + timeElastic_cst_4_out1 >= 1
  -timeElastic_phiC_0_in1 + timeElastic_phiC_0_out1 >= 1
  -timeElastic_phiC_0_in2 + timeElastic_phiC_0_out1 >= 1
  -timeElastic_branchC_1_in1 + timeElastic_branchC_1_out1 >= 1
  -timeElastic_branchC_1_in2 + timeElastic_branchC_1_out1 >= 1
  -timeElastic_branchC_1_in1 + timeElastic_branchC_1_out2 >= 1
  -timeElastic_branchC_1_in2 + timeElastic_branchC_1_out2 >= 1
  -timeElastic_phiC_4_in1 + timeElastic_phiC_4_out1 >= 1
  -timeElastic_phiC_4_in2 + timeElastic_phiC_4_out1 >= 1
  -timeElastic_phiC_4_in3 + timeElastic_phiC_4_out1 >= 1
  -timeElastic_phi_n10_in1 + timeElastic_phi_n10_out1 >= 1
  -timeElastic_phi_n10_in2 + timeElastic_phi_n10_out1 >= 1
  -timeElastic_branch_5_in1 + timeElastic_branch_5_out1 >= 1
  -timeElastic_branch_5_in2 + timeElastic_branch_5_out1 >= 1
  -timeElastic_branch_5_in1 + timeElastic_branch_5_out2 >= 1
  -timeElastic_branch_5_in2 + timeElastic_branch_5_out2 >= 1
  -timeElastic_branch_9_in1 + timeElastic_branch_9_out1 >= 1
  -timeElastic_branch_9_in2 + timeElastic_branch_9_out1 >= 1
  -timeElastic_branch_9_in1 + timeElastic_branch_9_out2 >= 1
  -timeElastic_branch_9_in2 + timeElastic_branch_9_out2 >= 1
  -timeElastic_branchC_11_in1 + timeElastic_branchC_11_out1 >= 1
  -timeElastic_branchC_11_in2 + timeElastic_branchC_11_out1 >= 1
  -timeElastic_branchC_11_in1 + timeElastic_branchC_11_out2 >= 1
  -timeElastic_branchC_11_in2 + timeElastic_branchC_11_out2 >= 1
  -timeElastic_branchC_13_in1 + timeElastic_branchC_13_out1 >= 1
  -timeElastic_branchC_13_in2 + timeElastic_branchC_13_out1 >= 1
  -timeElastic_branchC_13_in1 + timeElastic_branchC_13_out2 >= 1
  -timeElastic_branchC_13_in2 + timeElastic_branchC_13_out2 >= 1
  -timeElastic_fork_0_in1 + timeElastic_fork_0_out1 >= 1
  -timeElastic_fork_0_in1 + timeElastic_fork_0_out2 >= 1
  -timeElastic_fork_1_in1 + timeElastic_fork_1_out1 >= 1
  -timeElastic_fork_1_in1 + timeElastic_fork_1_out2 >= 1
  -timeElastic_fork_1_in1 + timeElastic_fork_1_out3 >= 1
  -timeElastic_fork_1_in1 + timeElastic_fork_1_out4 >= 1
  -timeElastic_fork_1_in1 + timeElastic_fork_1_out5 >= 1
  -timeElastic_forkC_6_in1 + timeElastic_forkC_6_out1 >= 1
  -timeElastic_forkC_6_in1 + timeElastic_forkC_6_out2 >= 1
  -timeElastic_forkC_6_in1 + timeElastic_forkC_6_out3 >= 1
  -timeElastic_forkC_6_in1 + timeElastic_forkC_6_out4 >= 1
  -timeElastic_forkC_6_in1 + timeElastic_forkC_6_out5 >= 1
  -timeElastic_forkC_6_in1 + timeElastic_forkC_6_out6 >= 1
  -timeElastic_fork_7_in1 + timeElastic_fork_7_out1 >= 1
  -timeElastic_fork_7_in1 + timeElastic_fork_7_out2 >= 1
  -timeElastic_forkC_10_in1 + timeElastic_forkC_10_out1 >= 1
  -timeElastic_forkC_10_in1 + timeElastic_forkC_10_out2 >= 1
  -timeElastic_fork_13_in1 + timeElastic_fork_13_out1 >= 1
  -timeElastic_fork_13_in1 + timeElastic_fork_13_out2 >= 1
  -timeElastic_fork_14_in1 + timeElastic_fork_14_out1 >= 1
  -timeElastic_fork_14_in1 + timeElastic_fork_14_out2 >= 1
  -timeElastic_mul_10_in1 + timeElastic_mul_10_out1 >= 1
  -timeElastic_mul_10_in2 + timeElastic_mul_10_out1 >= 1
  -timeElastic_cst_2_in1 + timeElastic_cst_2_out1 >= 1
  -timeElastic_add_11_in1 + timeElastic_add_11_out1 >= 1
  -timeElastic_add_11_in2 + timeElastic_add_11_out1 >= 1
  -timeElastic_mul_12_in1 + timeElastic_mul_12_out1 >= 1
  -timeElastic_mul_12_in2 + timeElastic_mul_12_out1 >= 1
  -timeElastic_cst_3_in1 + timeElastic_cst_3_out1 >= 1
  -timeElastic_add_13_in1 + timeElastic_add_13_out1 >= 1
  -timeElastic_add_13_in2 + timeElastic_add_13_out1 >= 1
  -timeElastic_mul_14_in1 + timeElastic_mul_14_out1 >= 1
  -timeElastic_mul_14_in2 + timeElastic_mul_14_out1 >= 1
  -timeElastic_phiC_1_in1 + timeElastic_phiC_1_out1 >= 1
  -timeElastic_branchC_2_in1 + timeElastic_branchC_2_out1 >= 1
  -timeElastic_branchC_2_in2 + timeElastic_branchC_2_out1 >= 1
  -timeElastic_branchC_2_in1 + timeElastic_branchC_2_out2 >= 1
  -timeElastic_branchC_2_in2 + timeElastic_branchC_2_out2 >= 1
  -timeElastic_cst_8_in1 + timeElastic_cst_8_out1 >= 1
  -timeElastic_fork_8_in1 + timeElastic_fork_8_out1 >= 1
  -timeElastic_fork_8_in1 + timeElastic_fork_8_out2 >= 1
  -timeElastic_fork_8_in1 + timeElastic_fork_8_out3 >= 1
  -timeElastic_fork_8_in1 + timeElastic_fork_8_out4 >= 1
  -timeElastic_forkC_9_in1 + timeElastic_forkC_9_out1 >= 1
  -timeElastic_forkC_9_in1 + timeElastic_forkC_9_out2 >= 1
  -timeElastic_forkC_11_in1 + timeElastic_forkC_11_out1 >= 1
  -timeElastic_forkC_11_in1 + timeElastic_forkC_11_out2 >= 1
  -timeElastic_phi_16_in1 + timeElastic_phi_16_out1 >= 1
  -timeElastic_phi_16_in2 + timeElastic_phi_16_out1 >= 1
  -timeElastic_phi_16_in3 + timeElastic_phi_16_out1 >= 1
  -timeElastic_store_0_in1 + timeElastic_store_0_out1 >= 1
  -timeElastic_store_0_in2 + timeElastic_store_0_out1 >= 1
  -timeElastic_store_0_in1 + timeElastic_store_0_out2 >= 1
  -timeElastic_store_0_in2 + timeElastic_store_0_out2 >= 1
  -timeElastic_cst_5_in1 + timeElastic_cst_5_out1 >= 1
  -timeElastic_add_19_in1 + timeElastic_add_19_out1 >= 1
  -timeElastic_add_19_in2 + timeElastic_add_19_out1 >= 1
  -timeElastic_cst_6_in1 + timeElastic_cst_6_out1 >= 1
  -timeElastic_icmp_20_in1 + timeElastic_icmp_20_out1 >= 1
  -timeElastic_icmp_20_in2 + timeElastic_icmp_20_out1 >= 1
  -timeElastic_phiC_2_in1 + timeElastic_phiC_2_out1 >= 1
  -timeElastic_phiC_2_in2 + timeElastic_phiC_2_out1 >= 1
  -timeElastic_branchC_3_in1 + timeElastic_branchC_3_out1 >= 1
  -timeElastic_branchC_3_in2 + timeElastic_branchC_3_out1 >= 1
  -timeElastic_branchC_3_in1 + timeElastic_branchC_3_out2 >= 1
  -timeElastic_branchC_3_in2 + timeElastic_branchC_3_out2 >= 1
  -timeElastic_branch_4_in1 + timeElastic_branch_4_out1 >= 1
  -timeElastic_branch_4_in2 + timeElastic_branch_4_out1 >= 1
  -timeElastic_branch_4_in1 + timeElastic_branch_4_out2 >= 1
  -timeElastic_branch_4_in2 + timeElastic_branch_4_out2 >= 1
  -timeElastic_branch_10_in1 + timeElastic_branch_10_out1 >= 1
  -timeElastic_branch_10_in2 + timeElastic_branch_10_out1 >= 1
  -timeElastic_branch_10_in1 + timeElastic_branch_10_out2 >= 1
  -timeElastic_branch_10_in2 + timeElastic_branch_10_out2 >= 1
  -timeElastic_fork_2_in1 + timeElastic_fork_2_out1 >= 1
  -timeElastic_fork_2_in1 + timeElastic_fork_2_out2 >= 1
  -timeElastic_fork_3_in1 + timeElastic_fork_3_out1 >= 1
  -timeElastic_fork_3_in1 + timeElastic_fork_3_out2 >= 1
  -timeElastic_fork_4_in1 + timeElastic_fork_4_out1 >= 1
  -timeElastic_fork_4_in1 + timeElastic_fork_4_out2 >= 1
  -timeElastic_fork_4_in1 + timeElastic_fork_4_out3 >= 1
  -timeElastic_fork_4_in1 + timeElastic_fork_4_out4 >= 1
  -timeElastic_fork_4_in1 + timeElastic_fork_4_out5 >= 1
  -timeElastic_forkC_12_in1 + timeElastic_forkC_12_out1 >= 1
  -timeElastic_forkC_12_in1 + timeElastic_forkC_12_out2 >= 1
  -timeElastic_ret_0_in1 + timeElastic_ret_0_out1 >= 1
  -timeElastic_phiC_3_in1 + timeElastic_phiC_3_out1 >= 1
  -timeElastic_LSQ_A_in1 + timeElastic_LSQ_A_out1 >= 1
  -timeElastic_LSQ_A_in2 + timeElastic_LSQ_A_out1 >= 1
  -timeElastic_LSQ_A_in3 + timeElastic_LSQ_A_out1 >= 1
  -timeElastic_LSQ_A_in4 + timeElastic_LSQ_A_out1 >= 1
  -timeElastic_LSQ_A_in5 + timeElastic_LSQ_A_out1 >= 1
  -timeElastic_LSQ_A_in1 + timeElastic_LSQ_A_out2 >= 1
  -timeElastic_LSQ_A_in2 + timeElastic_LSQ_A_out2 >= 1
  -timeElastic_LSQ_A_in3 + timeElastic_LSQ_A_out2 >= 1
  -timeElastic_LSQ_A_in4 + timeElastic_LSQ_A_out2 >= 1
  -timeElastic_LSQ_A_in5 + timeElastic_LSQ_A_out2 >= 1
  -timeElastic_MC_addr_in1 + timeElastic_MC_addr_out1 >= 1
  -timeElastic_MC_addr_in1 + timeElastic_MC_addr_out2 >= 1
Binary
  cst_0_phi_120_flop start_0_forkC_512_flop branchC_0_phiC_037_flop branchC_0_sink_1186_flop cst_7_branchC_05_flop cst_9_phi_n1048_flop forkC_5_cst_00_flop forkC_5_branchC_04_flop forkC_5_cst_78_flop forkC_5_cst_910_flop forkC_5_phiC_446_flop load_4_MC_addr195_flop load_7_LSQ_A190_flop branch_5_sink_4199_flop branch_9_sink_5200_flop branchC_11_sink_7202_flop branchC_13_sink_8203_flop forkC_10_LSQ_A188_flop branchC_2_sink_2187_flop store_0_LSQ_A191_flop store_0_LSQ_A192_flop branchC_3_phiC_3183_flop branch_4_sink_3198_flop branch_10_ret_0181_flop branch_10_sink_6201_flop forkC_12_LSQ_A189_flop ret_0_end_0206_flop phiC_3_sink_0185_flop LSQ_A_load_726_flop LSQ_A_end_0204_flop MC_addr_load_422_flop MC_addr_end_0205_flop
End
